% Logging successfully configured
%%%mzn-stat: initTime=0.022372668
%%%mzn-stat: objective=435
%%%mzn-stat: nodes=1259
%%%mzn-stat: restarts=0
%%%mzn-stat: peakDepth=1176
%%%mzn-stat: solveTime=0.058554467
%%%mzn-stat: variables=1887
%%%mzn-stat: propagators=1499
%%%mzn-stat: failures=43
%%%mzn-stat: propagations=6515
%%%mzn-stat: nogoods=43
%%%mzn-stat: numAtomicConstraintsPropagated=0
%%%mzn-stat: allDifferentNumber1PropagationsTotal=352
%%%mzn-stat: allDifferentNumber1PropagationsThatFoundConflict=1
%%%mzn-stat: allDifferentNumber1PropagationsThatPruned=191
%%%mzn-stat: allDifferentNumber1TotalValuesPruned=931
%%%mzn-stat: allDifferentNumber1TotalHallSetSizeConflict=6
%%%mzn-stat: allDifferentNumber1NumberOfConflicts=1
%%%mzn-stat: allDifferentNumber1MaxHallSetSizeConflict=6
%%%mzn-stat: allDifferentNumber1TotalPruningHallSetSize=1664
%%%mzn-stat: allDifferentNumber1NumberOfPruningExplanations=931
%%%mzn-stat: allDifferentNumber1MaxPruningHallSetSize=16
%%%mzn-stat: allDifferentNumber1TotalFixedEdgesAtConflict=82
%%%mzn-stat: allDifferentNumber1TotalVarsInvolvedInPruning=869
%%%mzn-stat: allDifferentNumber1MaxValuesPrunedFromSingleVar=4
%%%mzn-stat: allDifferentNumber1TotalSccSizeAtPruning=555
%%%mzn-stat: allDifferentNumber1NumberOfSccPruningCalls=191
%%%mzn-stat: circuitNumber2PropagationsThatFoundConflict=42
%%%mzn-stat: circuitNumber2TotalFixedEdgesAtConflict=3817
%%%mzn-stat: circuitNumber2NumberOfConflicts=42
%%%mzn-stat: circuitNumber2PropagationsThatPruned=12
%%%mzn-stat: circuitNumber2PropagationsTotal=194
%%%mzn-stat: AverageConflictSize=52.51162790697674
%%%mzn-stat: NumUnitNogoodsLearned=0
%%%mzn-stat: AverageLearnedNogoodLength=45.25581395348837
%%%mzn-stat: AverageBacktrackAmount=0
%%%mzn-stat: AverageLbd=41.906976744186046
%%%mzn-stat: 2AutonomousSearchNumBackupCalled=1100
%%%mzn-stat: 2AutonomousSearchNumPredicatesRemoved=0
%%%mzn-stat: 2AutonomousSearchNumCalls=1101
%%%mzn-stat: 2AutonomousSearchNumPredicatesAdded=651
%%%mzn-stat: 2AutonomousSearchAverageSizeOfHeap=0.5912806539509536
%%%mzn-stat: 2AutonomousSearchNumAssignedPredicatesEncountered=651
%%%mzn-stat-end
maxleg = 435;
succ = array1d(1..100,[4, 8, 6, 5, 24, 18, 19, 10, 16, 14, 12, 34, 27, 15, 28, 20, 30, 17, 13, 21, 25, 3, 9, 39, 26, 41, 35, 1, 2, 48, 29, 43, 7, 49, 32, 22, 31, 11, 51, 45, 42, 46, 59, 23, 37, 52, 44, 55, 50, 58, 33, 57, 36, 38, 92, 63, 53, 60, 76, 96, 40, 54, 69, 67, 62, 86, 88, 71, 100, 72, 74, 80, 84, 78, 61, 97, 68, 79, 98, 89, 87, 90, 65, 94, 56, 47, 82, 73, 83, 99, 66, 93, 77, 81, 91, 64, 85, 70, 75, 95]);
% time elapsed: 16.36 s
----------
%%%mzn-stat: initTime=0.022372668
%%%mzn-stat: objective=406
%%%mzn-stat: nodes=5256
%%%mzn-stat: restarts=0
%%%mzn-stat: peakDepth=1176
%%%mzn-stat: solveTime=1.2820551359999999
%%%mzn-stat: variables=1887
%%%mzn-stat: propagators=1499
%%%mzn-stat: failures=1431
%%%mzn-stat: propagations=60776
%%%mzn-stat: nogoods=1431
%%%mzn-stat: numAtomicConstraintsPropagated=0
%%%mzn-stat: allDifferentNumber1PropagationsTotal=7826
%%%mzn-stat: allDifferentNumber1PropagationsThatFoundConflict=2
%%%mzn-stat: allDifferentNumber1PropagationsThatPruned=4650
%%%mzn-stat: allDifferentNumber1TotalValuesPruned=16569
%%%mzn-stat: allDifferentNumber1TotalHallSetSizeConflict=9
%%%mzn-stat: allDifferentNumber1NumberOfConflicts=2
%%%mzn-stat: allDifferentNumber1MaxHallSetSizeConflict=6
%%%mzn-stat: allDifferentNumber1TotalPruningHallSetSize=25388
%%%mzn-stat: allDifferentNumber1NumberOfPruningExplanations=16569
%%%mzn-stat: allDifferentNumber1MaxPruningHallSetSize=43
%%%mzn-stat: allDifferentNumber1TotalFixedEdgesAtConflict=168
%%%mzn-stat: allDifferentNumber1TotalVarsInvolvedInPruning=13328
%%%mzn-stat: allDifferentNumber1MaxValuesPrunedFromSingleVar=4
%%%mzn-stat: allDifferentNumber1TotalSccSizeAtPruning=9869
%%%mzn-stat: allDifferentNumber1NumberOfSccPruningCalls=4650
%%%mzn-stat: circuitNumber2PropagationsThatFoundConflict=1425
%%%mzn-stat: circuitNumber2TotalFixedEdgesAtConflict=134556
%%%mzn-stat: circuitNumber2NumberOfConflicts=1425
%%%mzn-stat: circuitNumber2PropagationsThatPruned=476
%%%mzn-stat: circuitNumber2PropagationsTotal=4723
%%%mzn-stat: AverageConflictSize=52.685534591194966
%%%mzn-stat: NumUnitNogoodsLearned=0
%%%mzn-stat: AverageLearnedNogoodLength=52.814116002795245
%%%mzn-stat: AverageBacktrackAmount=0
%%%mzn-stat: AverageLbd=38.728860936408104
%%%mzn-stat: 2AutonomousSearchNumBackupCalled=2199
%%%mzn-stat: 2AutonomousSearchNumPredicatesRemoved=0
%%%mzn-stat: 2AutonomousSearchNumCalls=2201
%%%mzn-stat: 2AutonomousSearchNumPredicatesAdded=2079
%%%mzn-stat: 2AutonomousSearchAverageSizeOfHeap=0.9927305770104498
%%%mzn-stat: 2AutonomousSearchNumAssignedPredicatesEncountered=2185
%%%mzn-stat-end
maxleg = 406;
succ = array1d(1..100,[4, 8, 6, 5, 24, 18, 19, 10, 16, 14, 12, 34, 27, 15, 28, 20, 30, 17, 13, 21, 25, 3, 9, 39, 26, 41, 35, 1, 2, 48, 29, 43, 7, 49, 32, 22, 31, 11, 51, 45, 42, 46, 59, 23, 37, 52, 44, 55, 50, 58, 33, 57, 36, 38, 92, 63, 53, 60, 76, 96, 40, 54, 89, 67, 62, 86, 69, 71, 88, 72, 74, 80, 61, 78, 73, 97, 68, 79, 98, 94, 87, 90, 65, 81, 56, 47, 82, 100, 83, 99, 66, 93, 77, 84, 91, 64, 85, 70, 75, 95]);
% time elapsed: 17.57 s
----------
%%%mzn-stat: initTime=0.022372668
%%%mzn-stat: objective=378
%%%mzn-stat: nodes=9201
%%%mzn-stat: restarts=0
%%%mzn-stat: peakDepth=1180
%%%mzn-stat: solveTime=2.571978375
%%%mzn-stat: variables=1887
%%%mzn-stat: propagators=1499
%%%mzn-stat: failures=2788
%%%mzn-stat: propagations=114101
%%%mzn-stat: nogoods=2788
%%%mzn-stat: numAtomicConstraintsPropagated=0
%%%mzn-stat: allDifferentNumber1PropagationsTotal=15166
%%%mzn-stat: allDifferentNumber1PropagationsThatFoundConflict=2
%%%mzn-stat: allDifferentNumber1PropagationsThatPruned=9038
%%%mzn-stat: allDifferentNumber1TotalValuesPruned=31880
%%%mzn-stat: allDifferentNumber1TotalHallSetSizeConflict=9
%%%mzn-stat: allDifferentNumber1NumberOfConflicts=2
%%%mzn-stat: allDifferentNumber1MaxHallSetSizeConflict=6
%%%mzn-stat: allDifferentNumber1TotalPruningHallSetSize=48381
%%%mzn-stat: allDifferentNumber1NumberOfPruningExplanations=31880
%%%mzn-stat: allDifferentNumber1MaxPruningHallSetSize=43
%%%mzn-stat: allDifferentNumber1TotalFixedEdgesAtConflict=168
%%%mzn-stat: allDifferentNumber1TotalVarsInvolvedInPruning=25536
%%%mzn-stat: allDifferentNumber1MaxValuesPrunedFromSingleVar=4
%%%mzn-stat: allDifferentNumber1TotalSccSizeAtPruning=18868
%%%mzn-stat: allDifferentNumber1NumberOfSccPruningCalls=9038
%%%mzn-stat: circuitNumber2PropagationsThatFoundConflict=2782
%%%mzn-stat: circuitNumber2TotalFixedEdgesAtConflict=263062
%%%mzn-stat: circuitNumber2NumberOfConflicts=2782
%%%mzn-stat: circuitNumber2PropagationsThatPruned=923
%%%mzn-stat: circuitNumber2PropagationsTotal=9178
%%%mzn-stat: AverageConflictSize=53.672883787661405
%%%mzn-stat: NumUnitNogoodsLearned=0
%%%mzn-stat: AverageLearnedNogoodLength=53.8235294117647
%%%mzn-stat: AverageBacktrackAmount=0
%%%mzn-stat: AverageLbd=38.86944045911047
%%%mzn-stat: 2AutonomousSearchNumBackupCalled=3304
%%%mzn-stat: 2AutonomousSearchNumPredicatesRemoved=0
%%%mzn-stat: 2AutonomousSearchNumCalls=3307
%%%mzn-stat: 2AutonomousSearchNumPredicatesAdded=3472
%%%mzn-stat: 2AutonomousSearchAverageSizeOfHeap=1.1254913819171455
%%%mzn-stat: 2AutonomousSearchNumAssignedPredicatesEncountered=3722
%%%mzn-stat-end
maxleg = 378;
succ = array1d(1..100,[4, 8, 6, 5, 24, 18, 19, 10, 16, 14, 12, 34, 27, 15, 28, 20, 30, 17, 13, 21, 25, 3, 9, 39, 26, 41, 35, 1, 2, 48, 29, 43, 7, 49, 32, 22, 31, 11, 51, 45, 42, 46, 59, 23, 37, 52, 44, 55, 50, 58, 33, 57, 36, 38, 92, 63, 53, 60, 76, 97, 40, 54, 89, 67, 62, 86, 69, 71, 88, 72, 74, 80, 61, 78, 73, 56, 68, 79, 98, 94, 87, 90, 65, 81, 96, 47, 82, 100, 83, 99, 66, 93, 77, 84, 91, 64, 85, 70, 75, 95]);
% time elapsed: 18.87 s
----------
%%%mzn-stat: initTime=0.022372668
%%%mzn-stat: objective=350
%%%mzn-stat: nodes=10360
%%%mzn-stat: restarts=0
%%%mzn-stat: peakDepth=1180
%%%mzn-stat: solveTime=2.589187525
%%%mzn-stat: variables=1887
%%%mzn-stat: propagators=1499
%%%mzn-stat: failures=2788
%%%mzn-stat: propagations=116691
%%%mzn-stat: nogoods=2788
%%%mzn-stat: numAtomicConstraintsPropagated=0
%%%mzn-stat: allDifferentNumber1PropagationsTotal=15321
%%%mzn-stat: allDifferentNumber1PropagationsThatFoundConflict=2
%%%mzn-stat: allDifferentNumber1PropagationsThatPruned=9117
%%%mzn-stat: allDifferentNumber1TotalValuesPruned=32456
%%%mzn-stat: allDifferentNumber1TotalHallSetSizeConflict=9
%%%mzn-stat: allDifferentNumber1NumberOfConflicts=2
%%%mzn-stat: allDifferentNumber1MaxHallSetSizeConflict=6
%%%mzn-stat: allDifferentNumber1TotalPruningHallSetSize=49737
%%%mzn-stat: allDifferentNumber1NumberOfPruningExplanations=32456
%%%mzn-stat: allDifferentNumber1MaxPruningHallSetSize=55
%%%mzn-stat: allDifferentNumber1TotalFixedEdgesAtConflict=168
%%%mzn-stat: allDifferentNumber1TotalVarsInvolvedInPruning=26078
%%%mzn-stat: allDifferentNumber1MaxValuesPrunedFromSingleVar=4
%%%mzn-stat: allDifferentNumber1TotalSccSizeAtPruning=19254
%%%mzn-stat: allDifferentNumber1NumberOfSccPruningCalls=9117
%%%mzn-stat: circuitNumber2PropagationsThatFoundConflict=2782
%%%mzn-stat: circuitNumber2TotalFixedEdgesAtConflict=263062
%%%mzn-stat: circuitNumber2NumberOfConflicts=2782
%%%mzn-stat: circuitNumber2PropagationsThatPruned=927
%%%mzn-stat: circuitNumber2PropagationsTotal=9257
%%%mzn-stat: AverageConflictSize=53.672883787661405
%%%mzn-stat: NumUnitNogoodsLearned=0
%%%mzn-stat: AverageLearnedNogoodLength=53.8235294117647
%%%mzn-stat: AverageBacktrackAmount=0
%%%mzn-stat: AverageLbd=38.86944045911047
%%%mzn-stat: 2AutonomousSearchNumBackupCalled=4388
%%%mzn-stat: 2AutonomousSearchNumPredicatesRemoved=0
%%%mzn-stat: 2AutonomousSearchNumCalls=4392
%%%mzn-stat: 2AutonomousSearchNumPredicatesAdded=3472
%%%mzn-stat: 2AutonomousSearchAverageSizeOfHeap=1.1974043715846994
%%%mzn-stat: 2AutonomousSearchNumAssignedPredicatesEncountered=5259
%%%mzn-stat-end
maxleg = 350;
succ = array1d(1..100,[4, 8, 6, 5, 24, 18, 19, 10, 16, 14, 12, 34, 27, 15, 28, 20, 30, 17, 13, 21, 25, 3, 9, 39, 26, 41, 35, 1, 2, 48, 29, 43, 7, 49, 32, 22, 31, 11, 51, 45, 42, 46, 59, 23, 37, 52, 44, 55, 50, 58, 33, 57, 36, 38, 92, 63, 53, 60, 96, 76, 40, 54, 80, 67, 62, 86, 69, 71, 88, 72, 74, 83, 61, 78, 73, 97, 68, 79, 98, 94, 87, 90, 89, 81, 56, 47, 82, 100, 65, 99, 66, 93, 77, 84, 91, 64, 85, 70, 75, 95]);
% time elapsed: 18.89 s
----------
%%%mzn-stat: initTime=0.022372668
%%%mzn-stat: objective=332
%%%mzn-stat: nodes=11524
%%%mzn-stat: restarts=0
%%%mzn-stat: peakDepth=1180
%%%mzn-stat: solveTime=2.608311477
%%%mzn-stat: variables=1887
%%%mzn-stat: propagators=1499
%%%mzn-stat: failures=2792
%%%mzn-stat: propagations=119465
%%%mzn-stat: nogoods=2792
%%%mzn-stat: numAtomicConstraintsPropagated=0
%%%mzn-stat: allDifferentNumber1PropagationsTotal=15499
%%%mzn-stat: allDifferentNumber1PropagationsThatFoundConflict=2
%%%mzn-stat: allDifferentNumber1PropagationsThatPruned=9211
%%%mzn-stat: allDifferentNumber1TotalValuesPruned=33107
%%%mzn-stat: allDifferentNumber1TotalHallSetSizeConflict=9
%%%mzn-stat: allDifferentNumber1NumberOfConflicts=2
%%%mzn-stat: allDifferentNumber1MaxHallSetSizeConflict=6
%%%mzn-stat: allDifferentNumber1TotalPruningHallSetSize=51334
%%%mzn-stat: allDifferentNumber1NumberOfPruningExplanations=33107
%%%mzn-stat: allDifferentNumber1MaxPruningHallSetSize=63
%%%mzn-stat: allDifferentNumber1TotalFixedEdgesAtConflict=168
%%%mzn-stat: allDifferentNumber1TotalVarsInvolvedInPruning=26669
%%%mzn-stat: allDifferentNumber1MaxValuesPrunedFromSingleVar=5
%%%mzn-stat: allDifferentNumber1TotalSccSizeAtPruning=19718
%%%mzn-stat: allDifferentNumber1NumberOfSccPruningCalls=9211
%%%mzn-stat: circuitNumber2PropagationsThatFoundConflict=2786
%%%mzn-stat: circuitNumber2TotalFixedEdgesAtConflict=263397
%%%mzn-stat: circuitNumber2NumberOfConflicts=2786
%%%mzn-stat: circuitNumber2PropagationsThatPruned=938
%%%mzn-stat: circuitNumber2PropagationsTotal=9352
%%%mzn-stat: AverageConflictSize=53.60243553008596
%%%mzn-stat: NumUnitNogoodsLearned=0
%%%mzn-stat: AverageLearnedNogoodLength=53.767908309455585
%%%mzn-stat: AverageBacktrackAmount=0
%%%mzn-stat: AverageLbd=38.824856733524356
%%%mzn-stat: 2AutonomousSearchNumBackupCalled=5469
%%%mzn-stat: 2AutonomousSearchNumPredicatesRemoved=0
%%%mzn-stat: 2AutonomousSearchNumCalls=5474
%%%mzn-stat: 2AutonomousSearchNumPredicatesAdded=3748
%%%mzn-stat: 2AutonomousSearchAverageSizeOfHeap=1.25758129338692
%%%mzn-stat: 2AutonomousSearchNumAssignedPredicatesEncountered=6884
%%%mzn-stat-end
maxleg = 332;
succ = array1d(1..100,[4, 8, 6, 5, 24, 18, 19, 10, 16, 14, 12, 34, 27, 15, 28, 20, 30, 17, 13, 21, 25, 3, 9, 39, 26, 41, 35, 1, 2, 48, 29, 43, 7, 49, 32, 22, 31, 11, 51, 45, 42, 46, 96, 23, 37, 52, 44, 55, 50, 58, 33, 57, 36, 38, 92, 63, 53, 76, 85, 54, 40, 65, 69, 67, 70, 86, 88, 71, 64, 72, 74, 83, 61, 78, 73, 56, 68, 79, 98, 94, 87, 90, 89, 81, 97, 47, 82, 100, 80, 99, 66, 93, 77, 84, 91, 59, 60, 62, 75, 95]);
% time elapsed: 18.91 s
----------
%%%mzn-stat: initTime=0.022372668
%%%mzn-stat: objective=332
%%%mzn-stat: nodes=1139471
%%%mzn-stat: restarts=0
%%%mzn-stat: peakDepth=1180
%%%mzn-stat: solveTime=1783.286901859
%%%mzn-stat: variables=1887
%%%mzn-stat: propagators=1499
%%%mzn-stat: failures=1127119
%%%mzn-stat: propagations=27074385
%%%mzn-stat: nogoods=1127119
%%%mzn-stat: numAtomicConstraintsPropagated=0
%%%mzn-stat: allDifferentNumber1PropagationsTotal=3741971
%%%mzn-stat: allDifferentNumber1PropagationsThatFoundConflict=28
%%%mzn-stat: allDifferentNumber1PropagationsThatPruned=2296994
%%%mzn-stat: allDifferentNumber1TotalValuesPruned=5416007
%%%mzn-stat: allDifferentNumber1TotalHallSetSizeConflict=83
%%%mzn-stat: allDifferentNumber1NumberOfConflicts=28
%%%mzn-stat: allDifferentNumber1MaxHallSetSizeConflict=6
%%%mzn-stat: allDifferentNumber1TotalPruningHallSetSize=8538272
%%%mzn-stat: allDifferentNumber1NumberOfPruningExplanations=5416007
%%%mzn-stat: allDifferentNumber1MaxPruningHallSetSize=63
%%%mzn-stat: allDifferentNumber1TotalFixedEdgesAtConflict=2403
%%%mzn-stat: allDifferentNumber1TotalVarsInvolvedInPruning=4551689
%%%mzn-stat: allDifferentNumber1MaxValuesPrunedFromSingleVar=5
%%%mzn-stat: allDifferentNumber1TotalSccSizeAtPruning=5159270
%%%mzn-stat: allDifferentNumber1NumberOfSccPruningCalls=2296994
%%%mzn-stat: circuitNumber2PropagationsThatFoundConflict=1127047
%%%mzn-stat: circuitNumber2TotalFixedEdgesAtConflict=109307585
%%%mzn-stat: circuitNumber2NumberOfConflicts=1127047
%%%mzn-stat: circuitNumber2PropagationsThatPruned=462827
%%%mzn-stat: circuitNumber2PropagationsTotal=2534856
%%%mzn-stat: AverageConflictSize=86.73281880617752
%%%mzn-stat: NumUnitNogoodsLearned=0
%%%mzn-stat: AverageLearnedNogoodLength=82.4966192567067
%%%mzn-stat: AverageBacktrackAmount=0
%%%mzn-stat: AverageLbd=65.0910391892959
%%%mzn-stat: 2AutonomousSearchNumBackupCalled=5469
%%%mzn-stat: 2AutonomousSearchNumPredicatesRemoved=0
%%%mzn-stat: 2AutonomousSearchNumCalls=5474
%%%mzn-stat: 2AutonomousSearchNumPredicatesAdded=5779
%%%mzn-stat: 2AutonomousSearchAverageSizeOfHeap=1.25758129338692
%%%mzn-stat: 2AutonomousSearchNumAssignedPredicatesEncountered=6884
%%%mzn-stat-end
